(set-logic QF_SLIA)
(declare-fun var0 () String)
(assert (str.in_re var0 (re.++ ((_ re.loop 5 452) (re.++ (re.union (str.to_re ".^Z") (re.union (str.to_re "Ax%") (re.union (str.to_re "*J_") (str.to_re "y3)")))) (re.++ (re.union (str.to_re "E2O") (re.union (str.to_re "Jn") (re.union (str.to_re "\\=`") (str.to_re "6")))) (re.++ (re.union (str.to_re "!8E") (re.union (str.to_re "{>8") (re.union (str.to_re "I=") (str.to_re "xH]")))) (re.union (str.to_re "VK") (re.union (str.to_re ".") (re.union (str.to_re "T4K") (str.to_re "^;")))))))) (re.++ ((_ re.loop 16 243) (re.++ (re.union (str.to_re "L") (re.union (str.to_re "$`") (re.union (str.to_re "a{k") (str.to_re "7?5")))) (re.++ (re.union (str.to_re "8-") (re.union (str.to_re "%") (re.union (str.to_re "e") (str.to_re "\\k@")))) (re.++ (re.union (str.to_re "w") (re.union (str.to_re "._q") (re.union (str.to_re ".") (str.to_re "nfw")))) (re.union (str.to_re "/") (re.union (str.to_re ".IG") (re.union (str.to_re "0") (str.to_re "3H_")))))))) (re.++ ((_ re.loop 13 826) (re.++ (re.union (str.to_re "'") (re.union (str.to_re "j") (re.union (str.to_re ">#a") (str.to_re "h")))) (re.++ (re.union (str.to_re "&9G") (re.union (str.to_re "hm") (re.union (str.to_re "Q[") (str.to_re "G")))) (re.++ (re.union (str.to_re "7N[") (re.union (str.to_re "Js") (re.union (str.to_re "bq") (str.to_re "l")))) (re.union (str.to_re "sz)") (re.union (str.to_re "(") (re.union (str.to_re "Ky") (str.to_re "v")))))))) ((_ re.loop 6 330) (re.++ (re.union (str.to_re "dm8") (re.union (str.to_re "Za") (re.union (str.to_re "|") (str.to_re "@[")))) (re.++ (re.union (str.to_re ")QS") (re.union (str.to_re "80") (re.union (str.to_re "1,") (str.to_re "Oo")))) (re.++ (re.union (str.to_re "n") (re.union (str.to_re "<M!") (re.union (str.to_re "2") (str.to_re "'$h")))) (re.union (str.to_re "qi\u0022") (re.union (str.to_re "-") (re.union (str.to_re "bH") (str.to_re "Cy")))))))))))))
(assert (not (str.in_re var0 (re.++ ((_ re.loop 15 343) (re.++ (re.union (str.to_re "*") (re.union (str.to_re "\u0022e`") (re.union (str.to_re "rCw") (str.to_re "Uc")))) (re.++ (re.union (str.to_re "7{") (re.union (str.to_re "kA5") (re.union (str.to_re "Bq<") (str.to_re "T[<")))) (re.++ (re.union (str.to_re "0/") (re.union (str.to_re "k") (re.union (str.to_re "0K") (str.to_re "_")))) (re.union (str.to_re "!\\*") (re.union (str.to_re "\u0022k") (re.union (str.to_re "aXF") (str.to_re "e")))))))) (re.++ ((_ re.loop 8 566) (re.++ (re.union (str.to_re "}") (re.union (str.to_re "/G") (re.union (str.to_re "\\F@") (str.to_re "*3")))) (re.++ (re.union (str.to_re "I") (re.union (str.to_re "MR<") (re.union (str.to_re "gJm") (str.to_re "aMv")))) (re.++ (re.union (str.to_re "S.w") (re.union (str.to_re "1K") (re.union (str.to_re "_") (str.to_re "QCs")))) (re.union (str.to_re "4P") (re.union (str.to_re "NZh") (re.union (str.to_re "c") (str.to_re "6")))))))) (re.++ ((_ re.loop 2 29) (re.++ (re.union (str.to_re "yjy") (re.union (str.to_re "=1t") (re.union (str.to_re "~") (str.to_re "Y_;")))) (re.++ (re.union (str.to_re "Y") (re.union (str.to_re ")") (re.union (str.to_re "G") (str.to_re "JB")))) (re.++ (re.union (str.to_re "y") (re.union (str.to_re "8U8") (re.union (str.to_re "S") (str.to_re ".2")))) (re.union (str.to_re "=Tk") (re.union (str.to_re "T") (re.union (str.to_re ".<") (str.to_re "Ock")))))))) ((_ re.loop 13 490) (re.++ (re.union (str.to_re "\\\u0022I") (re.union (str.to_re "P&") (re.union (str.to_re "@Z|") (str.to_re "9")))) (re.++ (re.union (str.to_re "i%x") (re.union (str.to_re "o") (re.union (str.to_re "J={") (str.to_re ".JP")))) (re.++ (re.union (str.to_re "|eW") (re.union (str.to_re "aw") (re.union (str.to_re "6e'") (str.to_re "t*")))) (re.union (str.to_re "a-{") (re.union (str.to_re "9.") (re.union (str.to_re "rW+") (str.to_re "m"))))))))))))))
(assert (not (str.in_re var0 (re.++ (re.* re.allchar) (re.++ (re.union (str.to_re "<") (re.union (str.to_re ">") (re.union (str.to_re "'") (re.union (str.to_re "\u0022") (str.to_re "&"))))) (re.* re.allchar))))))
(assert (<= 50 (str.len var0)))
(check-sat)
(get-model)
